c Random generated cnf formula, satisfiable: true
p cnf 10 50
-6 2 8 0
-2 9 4 0
-8 9 3 0
2 -9 1 0
3 -6 8 0
-3 -9 -8 0
1 -2 -4 0
-3 1 -9 0
-4 3 2 0
-9 6 -1 0
-6 1 -4 0
1 10 -2 0
-7 4 -5 0
-3 -9 -6 0
2 -5 -6 0
-5 8 4 0
1 10 2 0
4 -3 -6 0
-9 -5 -1 0
-3 5 6 0
1 6 -9 0
-9 -5 3 0
4 2 10 0
-10 -9 5 0
-10 9 -1 0
-8 5 -3 0
6 8 7 0
8 6 2 0
-4 8 3 0
2 9 -6 0
2 6 3 0
3 -2 10 0
3 -8 10 0
5 3 4 0
-10 -2 -4 0
-3 -7 10 0
-4 6 8 0
8 9 2 0
9 -3 -8 0
-5 3 9 0
-10 8 -1 0
-4 3 2 0
-10 -1 -4 0
3 4 2 0
5 -3 -6 0
5 -4 -3 0
8 -10 7 0
3 5 8 0
-7 -3 9 0
-2 -8 7 0
